(set-info :smt-lib-version 2.6)
(set-logic QF_FP)
(set-info :source |
Generated by: Chenqi Cui
Generated on: 2025-12-27
Generator: AutoSMTGen
Application: Generating SMT constraints with small solution spaces to make them challenging for SMT solvers
Target solver: Z3, CVC5, Bitwuzla
|)
(set-info :license "https://creativecommons.org/licenses/by/4.0/")
(set-info :category "industrial")
(set-info :status sat)
; benchmark generated from python API

(declare-fun x10 () (_ FloatingPoint 11 53))
(declare-fun x9 () (_ FloatingPoint 11 53))
(declare-fun x8 () (_ FloatingPoint 11 53))
(declare-fun x7 () (_ FloatingPoint 11 53))
(declare-fun x6 () (_ FloatingPoint 11 53))
(declare-fun x5 () (_ FloatingPoint 11 53))
(declare-fun x4 () (_ FloatingPoint 11 53))
(declare-fun x3 () (_ FloatingPoint 11 53))
(declare-fun x2 () (_ FloatingPoint 11 53))
(declare-fun x1 () (_ FloatingPoint 11 53))
(declare-fun x0 () (_ FloatingPoint 11 53))
(assert
 (let ((?x21 (fp.add roundNearestTiesToEven (fp.mul roundNearestTiesToEven (fp #b1 #b10000000010 #xa0cc77a703897) x0) (fp.mul roundNearestTiesToEven (fp #b1 #b10000000101 #x442c276f9dbd1) x1))))
 (let ((?x24 (fp.add roundNearestTiesToEven ?x21 (fp.mul roundNearestTiesToEven (fp #b0 #b10000000100 #xdbf28e9fee470) x2))))
 (let ((?x27 (fp.add roundNearestTiesToEven ?x24 (fp.mul roundNearestTiesToEven (fp #b1 #b10000000011 #xd7437dfd05f8c) x3))))
 (let ((?x30 (fp.add roundNearestTiesToEven ?x27 (fp.mul roundNearestTiesToEven (fp #b0 #b10000000101 #x5a470e361434b) x4))))
 (let ((?x33 (fp.add roundNearestTiesToEven ?x30 (fp.mul roundNearestTiesToEven (fp #b1 #b10000000001 #x0b2cf2ce1d6ff) x5))))
 (let ((?x36 (fp.add roundNearestTiesToEven ?x33 (fp.mul roundNearestTiesToEven (fp #b0 #b10000000101 #x63d98f6e4a294) x6))))
 (let ((?x39 (fp.add roundNearestTiesToEven ?x36 (fp.mul roundNearestTiesToEven (fp #b1 #b10000000011 #xc7a86fd9f9f6d) x7))))
 (let ((?x42 (fp.add roundNearestTiesToEven ?x39 (fp.mul roundNearestTiesToEven (fp #b0 #b10000000010 #x65c7ae6e8898d) x8))))
 (let ((?x45 (fp.add roundNearestTiesToEven ?x42 (fp.mul roundNearestTiesToEven (fp #b1 #b10000000011 #xa6d8e010b3bad) x9))))
 (let ((?x48 (fp.add roundNearestTiesToEven ?x45 (fp.mul roundNearestTiesToEven (fp #b1 #b10000000101 #x2db1c4692c58c) x10))))
 (fp.leq ?x48 (fp #b1 #b10000000011 #x5670e10782aa0)))))))))))))
(assert
 (let ((?x72 (fp.add roundNearestTiesToEven (fp.mul roundNearestTiesToEven (fp #b0 #b10000000101 #x57cc0e96ce35d) x0) (fp.mul roundNearestTiesToEven (fp #b1 #b10000000101 #x2608e744650d8) x1))))
 (let ((?x75 (fp.add roundNearestTiesToEven ?x72 (fp.mul roundNearestTiesToEven (fp #b1 #b10000000100 #xab2e66d1a31c0) x2))))
 (let ((?x78 (fp.add roundNearestTiesToEven ?x75 (fp.mul roundNearestTiesToEven (fp #b0 #b10000000100 #x1d344168569d4) x3))))
 (let ((?x81 (fp.add roundNearestTiesToEven ?x78 (fp.mul roundNearestTiesToEven (fp #b1 #b10000000101 #x421dec966f375) x4))))
 (let ((?x84 (fp.add roundNearestTiesToEven ?x81 (fp.mul roundNearestTiesToEven (fp #b0 #b10000000100 #x63306e4cd0221) x5))))
 (let ((?x87 (fp.add roundNearestTiesToEven ?x84 (fp.mul roundNearestTiesToEven (fp #b0 #b10000000100 #xa9bdf3e6ce536) x6))))
 (let ((?x90 (fp.add roundNearestTiesToEven ?x87 (fp.mul roundNearestTiesToEven (fp #b0 #b10000000100 #xc0a3eb3bf49fb) x7))))
 (let ((?x93 (fp.add roundNearestTiesToEven ?x90 (fp.mul roundNearestTiesToEven (fp #b1 #b10000000010 #xecc04fc2f080f) x8))))
 (let ((?x96 (fp.add roundNearestTiesToEven ?x93 (fp.mul roundNearestTiesToEven (fp #b1 #b10000000100 #xe6070a7cfe899) x9))))
 (let ((?x99 (fp.add roundNearestTiesToEven ?x96 (fp.mul roundNearestTiesToEven (fp #b1 #b01111111110 #x05bf4e0e6a001) x10))))
 (fp.leq ?x99 (fp #b0 #b10000000100 #xfbce3dd07b2d7)))))))))))))
(assert
 (let ((?x106 (fp.add roundNearestTiesToEven (fp.mul roundNearestTiesToEven (fp #b0 #b10000000101 #x626986287eed4) x0) (fp.mul roundNearestTiesToEven (fp #b0 #b01111111111 #x7ea7f30f54d83) x1))))
 (let ((?x109 (fp.add roundNearestTiesToEven ?x106 (fp.mul roundNearestTiesToEven (fp #b1 #b10000000011 #xa508bf9983797) x2))))
 (let ((?x112 (fp.add roundNearestTiesToEven ?x109 (fp.mul roundNearestTiesToEven (fp #b0 #b10000000101 #x78e3f65535874) x3))))
 (let ((?x115 (fp.add roundNearestTiesToEven ?x112 (fp.mul roundNearestTiesToEven (fp #b0 #b10000000011 #x26bc521293ead) x4))))
 (let ((?x118 (fp.add roundNearestTiesToEven ?x115 (fp.mul roundNearestTiesToEven (fp #b0 #b10000000000 #x2ed8c53d71e27) x5))))
 (let ((?x121 (fp.add roundNearestTiesToEven ?x118 (fp.mul roundNearestTiesToEven (fp #b1 #b10000000100 #x3c81a4faf73c6) x6))))
 (let ((?x124 (fp.add roundNearestTiesToEven ?x121 (fp.mul roundNearestTiesToEven (fp #b1 #b10000000101 #x5c94115261777) x7))))
 (let ((?x127 (fp.add roundNearestTiesToEven ?x124 (fp.mul roundNearestTiesToEven (fp #b0 #b10000000100 #x0bbc3ad5a5341) x8))))
 (let ((?x130 (fp.add roundNearestTiesToEven ?x127 (fp.mul roundNearestTiesToEven (fp #b1 #b10000000100 #xa16ec34860718) x9))))
 (let ((?x133 (fp.add roundNearestTiesToEven ?x130 (fp.mul roundNearestTiesToEven (fp #b1 #b10000000001 #x8dbb8c02eed65) x10))))
 (fp.leq ?x133 (fp #b0 #b10000000011 #x7ce0c4e6f57d7)))))))))))))
(assert
 (let ((?x140 (fp.add roundNearestTiesToEven (fp.mul roundNearestTiesToEven (fp #b0 #b10000000001 #x4509f99110e4e) x0) (fp.mul roundNearestTiesToEven (fp #b0 #b10000000100 #xd5a0a1c2498c5) x1))))
 (let ((?x143 (fp.add roundNearestTiesToEven ?x140 (fp.mul roundNearestTiesToEven (fp #b1 #b10000000101 #x64a797208211a) x2))))
 (let ((?x146 (fp.add roundNearestTiesToEven ?x143 (fp.mul roundNearestTiesToEven (fp #b1 #b10000000011 #x669204e7dcd41) x3))))
 (let ((?x149 (fp.add roundNearestTiesToEven ?x146 (fp.mul roundNearestTiesToEven (fp #b1 #b10000000100 #x24ffefcdd0dbd) x4))))
 (let ((?x152 (fp.add roundNearestTiesToEven ?x149 (fp.mul roundNearestTiesToEven (fp #b0 #b10000000100 #xa4cedef003a44) x5))))
 (let ((?x155 (fp.add roundNearestTiesToEven ?x152 (fp.mul roundNearestTiesToEven (fp #b0 #b10000000100 #xb399f018b579d) x6))))
 (let ((?x158 (fp.add roundNearestTiesToEven ?x155 (fp.mul roundNearestTiesToEven (fp #b1 #b10000000101 #x12b2de4cf1b67) x7))))
 (let ((?x161 (fp.add roundNearestTiesToEven ?x158 (fp.mul roundNearestTiesToEven (fp #b1 #b10000000101 #x16fdb0b7e2aef) x8))))
 (let ((?x164 (fp.add roundNearestTiesToEven ?x161 (fp.mul roundNearestTiesToEven (fp #b1 #b10000000101 #x1c1ed1d117dc6) x9))))
 (let ((?x167 (fp.add roundNearestTiesToEven ?x164 (fp.mul roundNearestTiesToEven (fp #b0 #b10000000000 #xc232a62ecf5d7) x10))))
 (fp.leq ?x167 (fp #b0 #b10000000100 #x63046f3ebec39)))))))))))))
(assert
 (let ((?x174 (fp.add roundNearestTiesToEven (fp.mul roundNearestTiesToEven (fp #b0 #b10000000010 #x2f27cf89f16af) x0) (fp.mul roundNearestTiesToEven (fp #b1 #b10000000011 #x79da5adc2f91b) x1))))
 (let ((?x177 (fp.add roundNearestTiesToEven ?x174 (fp.mul roundNearestTiesToEven (fp #b0 #b10000000101 #x4f1fff7cb5ea4) x2))))
 (let ((?x180 (fp.add roundNearestTiesToEven ?x177 (fp.mul roundNearestTiesToEven (fp #b1 #b10000000101 #x19c5a9b4b685e) x3))))
 (let ((?x183 (fp.add roundNearestTiesToEven ?x180 (fp.mul roundNearestTiesToEven (fp #b1 #b10000000101 #x50321ccc17293) x4))))
 (let ((?x186 (fp.add roundNearestTiesToEven ?x183 (fp.mul roundNearestTiesToEven (fp #b1 #b10000000101 #x56b3324a0da8c) x5))))
 (let ((?x189 (fp.add roundNearestTiesToEven ?x186 (fp.mul roundNearestTiesToEven (fp #b0 #b10000000011 #xd72762a288e8e) x6))))
 (let ((?x192 (fp.add roundNearestTiesToEven ?x189 (fp.mul roundNearestTiesToEven (fp #b1 #b10000000101 #x1db9d3cb50cfe) x7))))
 (let ((?x195 (fp.add roundNearestTiesToEven ?x192 (fp.mul roundNearestTiesToEven (fp #b1 #b01111111111 #x547db0cbb9b18) x8))))
 (let ((?x198 (fp.add roundNearestTiesToEven ?x195 (fp.mul roundNearestTiesToEven (fp #b0 #b10000000101 #x7d1ee11386ea4) x9))))
 (let ((?x201 (fp.add roundNearestTiesToEven ?x198 (fp.mul roundNearestTiesToEven (fp #b1 #b10000000100 #xbceca10cbe28b) x10))))
 (fp.leq ?x201 (fp #b0 #b10000000101 #x603132c2bf326)))))))))))))
(assert
 (let ((?x208 (fp.add roundNearestTiesToEven (fp.mul roundNearestTiesToEven (fp #b0 #b10000000011 #xc8f2f7161a652) x0) (fp.mul roundNearestTiesToEven (fp #b0 #b10000000100 #x541b6ba828c84) x1))))
 (let ((?x211 (fp.add roundNearestTiesToEven ?x208 (fp.mul roundNearestTiesToEven (fp #b0 #b10000000100 #x87aa353ebfa71) x2))))
 (let ((?x214 (fp.add roundNearestTiesToEven ?x211 (fp.mul roundNearestTiesToEven (fp #b1 #b10000000000 #x20ef3bb8cab3b) x3))))
 (let ((?x217 (fp.add roundNearestTiesToEven ?x214 (fp.mul roundNearestTiesToEven (fp #b0 #b10000000011 #xefffc324bf53f) x4))))
 (let ((?x220 (fp.add roundNearestTiesToEven ?x217 (fp.mul roundNearestTiesToEven (fp #b1 #b10000000101 #x8c55aa44f1e17) x5))))
 (let ((?x223 (fp.add roundNearestTiesToEven ?x220 (fp.mul roundNearestTiesToEven (fp #b0 #b10000000101 #x5946caf3137ab) x6))))
 (let ((?x226 (fp.add roundNearestTiesToEven ?x223 (fp.mul roundNearestTiesToEven (fp #b0 #b10000000001 #xe7cfaf0c48d3a) x7))))
 (let ((?x229 (fp.add roundNearestTiesToEven ?x226 (fp.mul roundNearestTiesToEven (fp #b1 #b10000000100 #x700b4e2c5fdc0) x8))))
 (let ((?x232 (fp.add roundNearestTiesToEven ?x229 (fp.mul roundNearestTiesToEven (fp #b1 #b10000000011 #x6ff2e75d13943) x9))))
 (let ((?x235 (fp.add roundNearestTiesToEven ?x232 (fp.mul roundNearestTiesToEven (fp #b0 #b10000000101 #x193ff6ae4327f) x10))))
 (fp.leq ?x235 (fp #b0 #b10000000101 #x19b6d97dd2c3e)))))))))))))
(assert
 (let ((?x242 (fp.add roundNearestTiesToEven (fp.mul roundNearestTiesToEven (fp #b1 #b10000000100 #x232dc3ee188c8) x0) (fp.mul roundNearestTiesToEven (fp #b1 #b10000000100 #x953e8a07cbaf3) x1))))
 (let ((?x245 (fp.add roundNearestTiesToEven ?x242 (fp.mul roundNearestTiesToEven (fp #b0 #b10000000100 #xa62400bdf625f) x2))))
 (let ((?x248 (fp.add roundNearestTiesToEven ?x245 (fp.mul roundNearestTiesToEven (fp #b1 #b10000000010 #x8ef574936c26b) x3))))
 (let ((?x251 (fp.add roundNearestTiesToEven ?x248 (fp.mul roundNearestTiesToEven (fp #b1 #b10000000101 #x272b19c99b44c) x4))))
 (let ((?x254 (fp.add roundNearestTiesToEven ?x251 (fp.mul roundNearestTiesToEven (fp #b0 #b10000000100 #xb9fa891b454b1) x5))))
 (let ((?x257 (fp.add roundNearestTiesToEven ?x254 (fp.mul roundNearestTiesToEven (fp #b1 #b10000000101 #x56aa9a99b9e97) x6))))
 (let ((?x260 (fp.add roundNearestTiesToEven ?x257 (fp.mul roundNearestTiesToEven (fp #b1 #b10000000001 #xf139abd578f61) x7))))
 (let ((?x263 (fp.add roundNearestTiesToEven ?x260 (fp.mul roundNearestTiesToEven (fp #b0 #b10000000001 #xd86369402b913) x8))))
 (let ((?x266 (fp.add roundNearestTiesToEven ?x263 (fp.mul roundNearestTiesToEven (fp #b1 #b10000000100 #x58aaecebaea41) x9))))
 (let ((?x269 (fp.add roundNearestTiesToEven ?x266 (fp.mul roundNearestTiesToEven (fp #b0 #b10000000100 #xcd95aac9bb393) x10))))
 (fp.leq ?x269 (fp #b1 #b10000000101 #x2e14712eeeac1)))))))))))))
(assert
 (let ((?x276 (fp.add roundNearestTiesToEven (fp.mul roundNearestTiesToEven (fp #b0 #b10000000101 #x0e237d8d1c35b) x0) (fp.mul roundNearestTiesToEven (fp #b1 #b10000000100 #xd89bd59d14384) x1))))
 (let ((?x279 (fp.add roundNearestTiesToEven ?x276 (fp.mul roundNearestTiesToEven (fp #b0 #b10000000101 #x5c28841aebdc5) x2))))
 (let ((?x282 (fp.add roundNearestTiesToEven ?x279 (fp.mul roundNearestTiesToEven (fp #b1 #b10000000101 #x3e1e108bf6841) x3))))
 (let ((?x285 (fp.add roundNearestTiesToEven ?x282 (fp.mul roundNearestTiesToEven (fp #b0 #b10000000101 #x561f8bb6e81d6) x4))))
 (let ((?x288 (fp.add roundNearestTiesToEven ?x285 (fp.mul roundNearestTiesToEven (fp #b0 #b10000000101 #x63e2e724f7788) x5))))
 (let ((?x291 (fp.add roundNearestTiesToEven ?x288 (fp.mul roundNearestTiesToEven (fp #b0 #b10000000101 #x01fdef111fc32) x6))))
 (let ((?x294 (fp.add roundNearestTiesToEven ?x291 (fp.mul roundNearestTiesToEven (fp #b0 #b10000000101 #x513d92567a47a) x7))))
 (let ((?x297 (fp.add roundNearestTiesToEven ?x294 (fp.mul roundNearestTiesToEven (fp #b0 #b10000000101 #x9782f36ede24d) x8))))
 (let ((?x300 (fp.add roundNearestTiesToEven ?x297 (fp.mul roundNearestTiesToEven (fp #b0 #b10000000101 #x5316972e45bf5) x9))))
 (let ((?x303 (fp.add roundNearestTiesToEven ?x300 (fp.mul roundNearestTiesToEven (fp #b0 #b10000000101 #x458749ebf0dbd) x10))))
 (fp.leq ?x303 (fp #b1 #b10000000100 #x3652f50752964)))))))))))))
(assert
 (let ((?x310 (fp.add roundNearestTiesToEven (fp.mul roundNearestTiesToEven (fp #b1 #b10000000011 #xc897ae4618ea6) x0) (fp.mul roundNearestTiesToEven (fp #b0 #b10000000101 #x7b3210e6fb40b) x1))))
 (let ((?x313 (fp.add roundNearestTiesToEven ?x310 (fp.mul roundNearestTiesToEven (fp #b0 #b10000000011 #x5d254a272527b) x2))))
 (let ((?x316 (fp.add roundNearestTiesToEven ?x313 (fp.mul roundNearestTiesToEven (fp #b1 #b10000000100 #xc4a2f90b9ad0f) x3))))
 (let ((?x319 (fp.add roundNearestTiesToEven ?x316 (fp.mul roundNearestTiesToEven (fp #b0 #b10000000100 #x31e04f2b0817d) x4))))
 (let ((?x322 (fp.add roundNearestTiesToEven ?x319 (fp.mul roundNearestTiesToEven (fp #b0 #b10000000011 #x54e4a2542bc8b) x5))))
 (let ((?x325 (fp.add roundNearestTiesToEven ?x322 (fp.mul roundNearestTiesToEven (fp #b0 #b10000000100 #x1aefbe5579b0f) x6))))
 (let ((?x328 (fp.add roundNearestTiesToEven ?x325 (fp.mul roundNearestTiesToEven (fp #b1 #b01111111111 #x7731e1720ce40) x7))))
 (let ((?x331 (fp.add roundNearestTiesToEven ?x328 (fp.mul roundNearestTiesToEven (fp #b1 #b10000000101 #x043c0b03514fc) x8))))
 (let ((?x334 (fp.add roundNearestTiesToEven ?x331 (fp.mul roundNearestTiesToEven (fp #b1 #b10000000101 #x04b864951354f) x9))))
 (let ((?x337 (fp.add roundNearestTiesToEven ?x334 (fp.mul roundNearestTiesToEven (fp #b0 #b10000000011 #x72453b1b730a5) x10))))
 (fp.leq ?x337 (fp #b1 #b10000000100 #x477979171b722)))))))))))))
(assert
 (let ((?x344 (fp.add roundNearestTiesToEven (fp.mul roundNearestTiesToEven (fp #b0 #b10000000100 #x93d9e66a754c5) x0) (fp.mul roundNearestTiesToEven (fp #b0 #b10000000100 #xcfd02f43938b1) x1))))
 (let ((?x347 (fp.add roundNearestTiesToEven ?x344 (fp.mul roundNearestTiesToEven (fp #b0 #b10000000100 #x0e78f9ec67b21) x2))))
 (let ((?x350 (fp.add roundNearestTiesToEven ?x347 (fp.mul roundNearestTiesToEven (fp #b0 #b10000000011 #xb10ee41a08b43) x3))))
 (let ((?x353 (fp.add roundNearestTiesToEven ?x350 (fp.mul roundNearestTiesToEven (fp #b1 #b10000000010 #xbdaf170c7a788) x4))))
 (let ((?x356 (fp.add roundNearestTiesToEven ?x353 (fp.mul roundNearestTiesToEven (fp #b1 #b01111111111 #x4b024ac664eea) x5))))
 (let ((?x359 (fp.add roundNearestTiesToEven ?x356 (fp.mul roundNearestTiesToEven (fp #b1 #b10000000100 #xdb9b1a7dc0ed8) x6))))
 (let ((?x362 (fp.add roundNearestTiesToEven ?x359 (fp.mul roundNearestTiesToEven (fp #b1 #b10000000010 #x27ef57b20a64b) x7))))
 (let ((?x365 (fp.add roundNearestTiesToEven ?x362 (fp.mul roundNearestTiesToEven (fp #b0 #b10000000100 #x09a0b4b13a125) x8))))
 (let ((?x368 (fp.add roundNearestTiesToEven ?x365 (fp.mul roundNearestTiesToEven (fp #b1 #b10000000100 #x72505e925098c) x9))))
 (let ((?x371 (fp.add roundNearestTiesToEven ?x368 (fp.mul roundNearestTiesToEven (fp #b1 #b10000000100 #x7ddfe7408021f) x10))))
 (fp.leq ?x371 (fp #b1 #b10000000001 #x641d75271b5f5)))))))))))))
(assert
 (let ((?x378 (fp.add roundNearestTiesToEven (fp.mul roundNearestTiesToEven (fp #b0 #b10000000101 #x08515da5df0b1) x0) (fp.mul roundNearestTiesToEven (fp #b0 #b10000000100 #xebb52954bf16d) x1))))
 (let ((?x381 (fp.add roundNearestTiesToEven ?x378 (fp.mul roundNearestTiesToEven (fp #b1 #b10000000011 #x68827b6313f07) x2))))
 (let ((?x384 (fp.add roundNearestTiesToEven ?x381 (fp.mul roundNearestTiesToEven (fp #b0 #b10000000101 #x3fa2f89d871d1) x3))))
 (let ((?x387 (fp.add roundNearestTiesToEven ?x384 (fp.mul roundNearestTiesToEven (fp #b1 #b10000000101 #x78de5d423cd6c) x4))))
 (let ((?x390 (fp.add roundNearestTiesToEven ?x387 (fp.mul roundNearestTiesToEven (fp #b1 #b01111111100 #xae8c9b2277d29) x5))))
 (let ((?x393 (fp.add roundNearestTiesToEven ?x390 (fp.mul roundNearestTiesToEven (fp #b0 #b10000000100 #xd2682bf85ba00) x6))))
 (let ((?x396 (fp.add roundNearestTiesToEven ?x393 (fp.mul roundNearestTiesToEven (fp #b0 #b10000000101 #x2691bbbbf3145) x7))))
 (let ((?x399 (fp.add roundNearestTiesToEven ?x396 (fp.mul roundNearestTiesToEven (fp #b1 #b10000000100 #xd6eefcd822d4c) x8))))
 (let ((?x402 (fp.add roundNearestTiesToEven ?x399 (fp.mul roundNearestTiesToEven (fp #b0 #b10000000011 #xa79bba7b25ee6) x9))))
 (let ((?x405 (fp.add roundNearestTiesToEven ?x402 (fp.mul roundNearestTiesToEven (fp #b1 #b10000000001 #x31ca675d5932f) x10))))
 (fp.leq ?x405 (fp #b0 #b10000000101 #x1d4ff68ac0c23)))))))))))))
(assert
 (let ((?x412 (fp.add roundNearestTiesToEven (fp.mul roundNearestTiesToEven (fp #b1 #b10000000011 #xf55e39844e396) x0) (fp.mul roundNearestTiesToEven (fp #b0 #b10000000100 #x91d263b5637ec) x1))))
 (let ((?x415 (fp.add roundNearestTiesToEven ?x412 (fp.mul roundNearestTiesToEven (fp #b1 #b10000000101 #x14647d712e8f1) x2))))
 (let ((?x418 (fp.add roundNearestTiesToEven ?x415 (fp.mul roundNearestTiesToEven (fp #b1 #b10000000101 #x7273402b3f564) x3))))
 (let ((?x421 (fp.add roundNearestTiesToEven ?x418 (fp.mul roundNearestTiesToEven (fp #b0 #b10000000100 #x7f4f8f3c8fffe) x4))))
 (let ((?x424 (fp.add roundNearestTiesToEven ?x421 (fp.mul roundNearestTiesToEven (fp #b0 #b10000000011 #x056ef526e4720) x5))))
 (let ((?x427 (fp.add roundNearestTiesToEven ?x424 (fp.mul roundNearestTiesToEven (fp #b1 #b10000000000 #x2be4b77927735) x6))))
 (let ((?x430 (fp.add roundNearestTiesToEven ?x427 (fp.mul roundNearestTiesToEven (fp #b1 #b10000000010 #x5306b63984430) x7))))
 (let ((?x433 (fp.add roundNearestTiesToEven ?x430 (fp.mul roundNearestTiesToEven (fp #b1 #b10000000100 #x6bde4f33c9c8d) x8))))
 (let ((?x436 (fp.add roundNearestTiesToEven ?x433 (fp.mul roundNearestTiesToEven (fp #b0 #b10000000101 #x17f4303bd54ba) x9))))
 (let ((?x439 (fp.add roundNearestTiesToEven ?x436 (fp.mul roundNearestTiesToEven (fp #b0 #b10000000101 #x811019d3faad8) x10))))
 (fp.leq ?x439 (fp #b1 #b10000000011 #xf41487eb6d12b)))))))))))))
(assert
 (let ((?x446 (fp.add roundNearestTiesToEven (fp.mul roundNearestTiesToEven (fp #b0 #b10000000101 #x40211c8d13e91) x0) (fp.mul roundNearestTiesToEven (fp #b1 #b10000000100 #x262549665c703) x1))))
 (let ((?x449 (fp.add roundNearestTiesToEven ?x446 (fp.mul roundNearestTiesToEven (fp #b1 #b10000000101 #x07ad9462fc1cc) x2))))
 (let ((?x452 (fp.add roundNearestTiesToEven ?x449 (fp.mul roundNearestTiesToEven (fp #b0 #b10000000010 #x3eb56a3017c24) x3))))
 (let ((?x455 (fp.add roundNearestTiesToEven ?x452 (fp.mul roundNearestTiesToEven (fp #b0 #b10000000101 #x89195803bf757) x4))))
 (let ((?x458 (fp.add roundNearestTiesToEven ?x455 (fp.mul roundNearestTiesToEven (fp #b1 #b10000000010 #x577d0fa12b135) x5))))
 (let ((?x461 (fp.add roundNearestTiesToEven ?x458 (fp.mul roundNearestTiesToEven (fp #b0 #b10000000001 #x59ac74182ec24) x6))))
 (let ((?x464 (fp.add roundNearestTiesToEven ?x461 (fp.mul roundNearestTiesToEven (fp #b0 #b10000000001 #xcc9512c227b5b) x7))))
 (let ((?x467 (fp.add roundNearestTiesToEven ?x464 (fp.mul roundNearestTiesToEven (fp #b0 #b10000000001 #x09bb3e709cb94) x8))))
 (let ((?x470 (fp.add roundNearestTiesToEven ?x467 (fp.mul roundNearestTiesToEven (fp #b0 #b10000000100 #x533e7e16da2d1) x9))))
 (let ((?x473 (fp.add roundNearestTiesToEven ?x470 (fp.mul roundNearestTiesToEven (fp #b1 #b10000000101 #x72230916fb6e4) x10))))
 (fp.leq ?x473 (fp #b1 #b01111111110 #xf7552cdcd9fe7)))))))))))))
(assert
 (let ((?x480 (fp.add roundNearestTiesToEven (fp.mul roundNearestTiesToEven (fp #b1 #b10000000101 #x43a851abdfd09) x0) (fp.mul roundNearestTiesToEven (fp #b0 #b10000000101 #x0c081396e1545) x1))))
 (let ((?x483 (fp.add roundNearestTiesToEven ?x480 (fp.mul roundNearestTiesToEven (fp #b0 #b10000000101 #x88fb626c1eac6) x2))))
 (let ((?x486 (fp.add roundNearestTiesToEven ?x483 (fp.mul roundNearestTiesToEven (fp #b1 #b10000000011 #xe13411f785162) x3))))
 (let ((?x489 (fp.add roundNearestTiesToEven ?x486 (fp.mul roundNearestTiesToEven (fp #b1 #b10000000100 #xa4e7d2ef5a95c) x4))))
 (let ((?x492 (fp.add roundNearestTiesToEven ?x489 (fp.mul roundNearestTiesToEven (fp #b0 #b10000000101 #x82e664b34268c) x5))))
 (let ((?x495 (fp.add roundNearestTiesToEven ?x492 (fp.mul roundNearestTiesToEven (fp #b0 #b10000000100 #x10ac07add2c61) x6))))
 (let ((?x498 (fp.add roundNearestTiesToEven ?x495 (fp.mul roundNearestTiesToEven (fp #b0 #b10000000101 #x1d28a887bdaf1) x7))))
 (let ((?x501 (fp.add roundNearestTiesToEven ?x498 (fp.mul roundNearestTiesToEven (fp #b1 #b10000000000 #xeea321fe633fb) x8))))
 (let ((?x504 (fp.add roundNearestTiesToEven ?x501 (fp.mul roundNearestTiesToEven (fp #b0 #b10000000101 #x12f15904a7a2a) x9))))
 (let ((?x507 (fp.add roundNearestTiesToEven ?x504 (fp.mul roundNearestTiesToEven (fp #b1 #b10000000010 #xc69aaf95fe85b) x10))))
 (fp.leq ?x507 (fp #b0 #b10000000101 #x471614fa5d2b5)))))))))))))
(assert
 (let ((?x514 (fp.add roundNearestTiesToEven (fp.mul roundNearestTiesToEven (fp #b1 #b10000000101 #x599cacdd00614) x0) (fp.mul roundNearestTiesToEven (fp #b1 #b10000000011 #x7e081736bd749) x1))))
(let ((?x517 (fp.add roundNearestTiesToEven ?x514 (fp.mul roundNearestTiesToEven (fp #b0 #b10000000011 #x36d1c9d82c6b3) x2))))
(let ((?x520 (fp.add roundNearestTiesToEven ?x517 (fp.mul roundNearestTiesToEven (fp #b1 #b10000000100 #x4850454675e9a) x3))))
(let ((?x523 (fp.add roundNearestTiesToEven ?x520 (fp.mul roundNearestTiesToEven (fp #b0 #b10000000011 #x90a88007c9b90) x4))))
(let ((?x526 (fp.add roundNearestTiesToEven ?x523 (fp.mul roundNearestTiesToEven (fp #b1 #b10000000101 #x4893ba93f3f57) x5))))
(let ((?x529 (fp.add roundNearestTiesToEven ?x526 (fp.mul roundNearestTiesToEven (fp #b0 #b10000000011 #xba4b458890e44) x6))))
(let ((?x532 (fp.add roundNearestTiesToEven ?x529 (fp.mul roundNearestTiesToEven (fp #b0 #b10000000100 #xe5887968eb48a) x7))))
(let ((?x535 (fp.add roundNearestTiesToEven ?x532 (fp.mul roundNearestTiesToEven (fp #b0 #b10000000001 #x59d1b68852d7d) x8))))
(let ((?x538 (fp.add roundNearestTiesToEven ?x535 (fp.mul roundNearestTiesToEven (fp #b0 #b10000000011 #x7c38516b57eac) x9))))
(let ((?x541 (fp.add roundNearestTiesToEven ?x538 (fp.mul roundNearestTiesToEven (fp #b1 #b10000000101 #x3518d4280108b) x10))))
(fp.leq ?x541 (fp #b0 #b10000000010 #x4c71b7481ddd2)))))))))))))
(check-sat)
(exit)
